53 0
24 -98 0
-15 -100 0
40 95 -100 0
96 -81 -79 -40 -100 0
82 12 -90 5 -73 0
-34 97 -100 0
95 -100 0
d 40 95 -100 0
-100 0
-95 -19 0
89 -56 97 -66 -79 95 0
-21 15 0
-44 -79 -81 -89 -19 0
-81 -89 15 0
44 -79 -52 -73 0
-89 15 0
d -81 -89 15 0
-40 15 0
34 52 -18 88 0
12 -34 -79 -81 40 58 28 0
15 0
-44 40 95 0
40 95 0
d -44 40 95 0
44 -89 -18 -79 -40 5 0
-44 -82 95 0
-18 95 0
44 -79 -40 5 0
d 44 -89 -18 -79 -40 5 0
95 0
21 0
13 0
-19 0
-24 0
3 0
-39 0
0
